outputs/case_349.model.txt
supervisory_disposition_executed = True
capital_adequacy_ratio = 40
net_worth_ratio_prev = 5/2
credit_restriction_enforced = True
net_worth_ratio = -10
responsible_person_registration_cancelled = True
special_asset_approval_obtained = True
responsible_person_removed = True
net_worth = -1000000
responsible_person_compensation_reduction_rate = 0
improvement_plan_executed = True
special_asset_disposed = True
responsible_person_duty_suspended = True
branch_office_restriction_enforced = True
improvement_plan_submitted = True
capital_severely_insufficient_measures_ok = True
capital_level = 4
capital_insufficient_measures_ok = True
penalty = False
capital_significantly_insufficient_measures_ok = True